p cnf 7230 17
-5527 -6029 -6161 0
-5517 -6039 -6159 0
5911 6025 -6157 0
5527 -6162 0
5517 -6160 0
-5911 -6158 0
6161 6162 0
6159 6160 0
6157 6158 0
6029 -6162 0
6039 -6160 0
-6025 -6158 0
-5261 -6031 6164 0
6155 6156 0
-6155 -6156 0
6031 -6164 0
5261 -6164 0
